
Gurobi 10.0.2 (win64) logging started Fri Jun 21 03:41:30 2024

Set parameter LogFile to value "log/log_difficulty1_MNL_DESKTOP-S7OVCUR_9_48.txt"
Gurobi Optimizer version 10.0.2 build v10.0.2rc0 (win64)

CPU model: Intel(R) Core(TM) i7-10510U CPU @ 1.80GHz, instruction set [SSE2|AVX|AVX2]
Thread count: 4 physical cores, 8 logical processors, using up to 8 threads

Optimize a model with 2020 rows, 676 columns and 4612 nonzeros
Model fingerprint: 0x9d165dc8
Variable types: 364 continuous, 312 integer (312 binary)
Coefficient statistics:
  Matrix range     [1e-03, 9e+02]
  Objective range  [1e+02, 6e+02]
  Bounds range     [1e+00, 1e+00]
  RHS range        [1e+00, 1e+00]
Found heuristic solution: objective -0.0000000
Presolve removed 224 rows and 104 columns
Presolve time: 0.02s
Presolved: 1796 rows, 572 columns, 4238 nonzeros
Found heuristic solution: objective 2357.7215727
Variable types: 308 continuous, 264 integer (264 binary)

Root relaxation: objective 1.558293e+04, 460 iterations, 0.00 seconds (0.00 work units)

    Nodes    |    Current Node    |     Objective Bounds      |     Work
 Expl Unexpl |  Obj  Depth IntInf | Incumbent    BestBd   Gap | It/Node Time

     0     0 15582.9263    0  163 2357.72157 15582.9263   561%     -    0s
H    0     0                    9901.2155208 15582.9263  57.4%     -    0s
H    0     0                    10355.903980 15582.9263  50.5%     -    0s
H    0     0                    13751.599006 15582.9263  13.3%     -    0s
     0     0 14866.7087    0  194 13751.5990 14866.7087  8.11%     -    0s
H    0     0                    13776.699904 14866.7087  7.91%     -    0s
     0     0 14859.0690    0  193 13776.6999 14859.0690  7.86%     -    0s
     0     0 14858.7354    0  194 13776.6999 14858.7354  7.85%     -    0s
     0     0 14858.7354    0  194 13776.6999 14858.7354  7.85%     -    0s
H    0     0                    13824.578664 14670.0411  6.12%     -    0s
     0     0 14670.0411    0  187 13824.5787 14670.0411  6.12%     -    0s
H    0     0                    14359.456741 14670.0411  2.16%     -    0s
H    0     0                    14407.126716 14663.1078  1.78%     -    0s
H    0     0                    14575.190033 14663.1078  0.60%     -    0s
     0     0 14663.0836    0  197 14575.1900 14663.0836  0.60%     -    0s
     0     0 14662.8821    0  196 14575.1900 14662.8821  0.60%     -    0s
H    0     0                    14578.546181 14662.5187  0.58%     -    0s
     0     0 14657.3547    0  195 14578.5462 14657.3547  0.54%     -    0s
     0     0 14578.5462    0   28 14578.5462 14578.5462  0.00%     -    0s

Cutting planes:
  Gomory: 26
  Implied bound: 25
  MIR: 70
  Flow cover: 111
  RLT: 79
  Relax-and-lift: 11
  BQP: 8

Explored 1 nodes (1708 simplex iterations) in 0.32 seconds (0.12 work units)
Thread count was 8 (of 8 available processors)

Solution count 10: 14578.5 14575.2 14407.1 ... 2357.72

Optimal solution found (tolerance 1.00e-04)
Best objective 1.457854618110e+04, best bound 1.457854618110e+04, gap 0.0000%
